
Value of objective function: 1000000000000000019884624838656.00000000

Actual values of the variables:
maximize                    1e+30
bookcase                       51
desk                            0
chair                          72
bedframe                        0
